NAME : Problem-3-10-C
TYPE : HVRP
DIMENSION : 11
EDGE_WEIGHT_TYPE : EUC_2D

NODE_COORD_SECTION
1 30 40
2 37 52
4 52 64
6 40 30
9 31 62
11 51 21
13 31 32
15 12 42
18 27 23
19 17 33
21 57 58

DEMAND_SECTION
1 0
2 7
4 16
6 21
9 23
11 5
13 29
15 21
18 3
19 41
21 28

VEHICLE_TYPES
# id capacity fixed_cost var_cost
A 20 20 1
B 30 35 1 
C 40 50 1
D 70 120 1
E 120 225 1 
END_VEHICLE_TYPES

DEPOT_SECTION
1
-1
EOF
